58, 6995
12352, 727
5430, 940
12173, 959
4232, 508
9756, 961
11541, 574
4245, 559
11238, 738
9544, 660
4902, 788
7070, 948
9768, 822
3901, 785
5261, 528
9570, 795
12048, 679
11295, 636
4532, 824
11015, 994
9507, 716
9639, 657
5883, 896
4467, 567
12093, 850
4549, 532
10295, 627
2659, 698
6602, 667
12455, 729
10499, 673
5826, 514
12382, 792
4109, 569
7329, 838
6526, 913
3159, 763
8501, 651
5095, 532
12213, 760
7909, 998
9444, 704
3295, 991
3013, 723
6859, 511
10954, 781
8964, 750
7591, 977
2949, 696
6229, 530
11998, 714
9725, 598
8636, 902
6100, 629
4495, 637
4292, 980
10886, 982
4839, 990
5853, 630